Route #1: 1 88 46 47 64 62 51 24 55 12 50 1 
Route #2: 1 81 3 76 53 87 97 92 91 17 60 1 
Route #3: 1 69 52 6 13 95 42 22 40 58 1 
Route #4: 1 1 20 63 10 70 27 96 100 28 1 
Route #5: 1 71 78 33 77 54 67 56 4 1 
Route #6: 1 31 30 34 29 80 73 2 26 1 
Route #7: 1 61 84 36 19 90 32 65 35 9 1 
Route #8: 1 66 7 45 16 85 41 1 
Route #9: 1 89 94 59 5 82 1 
Route #10: 1 18 93 98 86 44 15 57 1 
Route #11: 1 48 8 99 37 14 43 74 21 1 
Route #12: 1 79 68 25 75 72 1 
Route #13: 1 11 49 83 38 23 1 
Route #14: 1 39 1 

Cost 1986.06
Time 2.0647


 * Another infos *

 Iterations: 101 Time: 2.0647 sec - 0.0344 min - 0.0006 horas
0.0000 h 0.0344 min
Problem dimension: 101
